1583038800,991229,
1585713600,994992,
1588305600,999199,
1590984000,1003749,
1593576000,1008095,
1596254400,1012551,
1598932800,1017022,1
1601524800,1021616,2
1604203200,1025864,3
1606798800,1030078,4
1609477200,1034477,5
1612155600,1039304,6
1614574800,1043957,7
1617249600,1051079,8
1619841600,1057204,9
1622520000,1062863,10
1625112000,1073688,11
